p cnf 109 378
-3 1 0
-3 2 0
-1 -2 3 0
-5 1 0
-5 4 0
-1 -4 5 0
6 -3 0
6 5 0
3 -5 -6 0
8 6 0
8 -7 0
-6 7 -8 0
12 10 0
12 -11 0
-10 11 -12 0
13 -9 0
13 -12 0
9 12 -13 0
-4 -11 -14 0
4 11 -14 0
-4 11 14 0
4 -11 14 0
15 -13 0
15 -14 0
13 14 -15 0
17 -16 0
17 2 0
16 -2 -17 0
-18 -15 0
-18 17 0
15 -17 18 0
-19 -8 0
-19 -18 0
8 18 19 0
-20 -5 0
-20 -4 0
5 4 20 0
-2 -20 -21 0
2 20 -21 0
-2 20 21 0
2 -20 21 0
22 9 0
22 -21 0
-9 21 -22 0
23 -22 0
23 -14 0
22 14 -23 0
24 -19 0
24 23 0
19 -23 -24 0
26 25 0
26 16 0
-25 -16 -26 0
-26 25 -27 0
26 -25 -27 0
-26 -25 27 0
26 25 27 0
28 -25 0
28 11 0
25 -11 -28 0
29 -28 0
29 -25 0
28 25 -29 0
30 -27 0
30 -29 0
27 29 -30 0
31 -4 0
31 12 0
4 -12 -31 0
5 -31 -32 0
-5 31 -32 0
5 31 32 0
-5 -31 32 0
-33 30 0
-33 32 0
-30 -32 33 0
-34 35 -36 0
34 -35 -36 0
-34 -35 36 0
34 35 36 0
37 36 0
37 17 0
-36 -17 -37 0
-10 38 -39 0
10 -38 -39 0
-10 -38 39 0
10 38 39 0
40 -12 0
40 4 0
12 -4 -40 0
-41 40 0
-41 35 0
-40 -35 41 0
-39 41 -42 0
39 -41 -42 0
-39 -41 42 0
39 41 42 0
-43 28 0
-43 15 0
-28 -15 43 0
-43 11 -44 0
43 -11 -44 0
-43 -11 44 0
43 11 44 0
-45 44 0
-45 -40 0
-44 40 45 0
-46 -9 0
-46 1 0
9 -1 46 0
-25 47 -48 0
25 -47 -48 0
-25 -47 48 0
25 47 48 0
49 48 0
49 -1 0
-48 1 -49 0
50 -46 0
50 49 0
46 -49 -50 0
-34 -9 -51 0
34 9 -51 0
-34 9 51 0
34 -9 51 0
-52 -51 0
-52 10 0
51 -10 52 0
-50 52 -53 0
50 -52 -53 0
-50 -52 53 0
50 52 53 0
-45 53 -54 0
45 -53 -54 0
-45 -53 54 0
45 53 54 0
42 54 -55 0
-42 -54 -55 0
42 -54 55 0
-42 54 55 0
-51 -10 -56 0
51 10 -56 0
-51 10 56 0
51 -10 56 0
57 -17 0
57 -51 0
17 51 -57 0
-58 -2 0
-58 57 0
2 -57 58 0
-59 -57 0
-59 58 0
57 -58 59 0
-60 -56 0
-60 59 0
56 -59 60 0
61 -55 0
61 -60 0
55 60 -61 0
-62 -37 0
-62 61 0
37 -61 62 0
-63 -13 0
-63 14 0
13 -14 63 0
64 28 0
64 -11 0
-28 11 -64 0
65 64 0
65 -36 0
-64 36 -65 0
66 63 0
66 65 0
-63 -65 -66 0
-67 -35 0
-67 47 0
35 -47 67 0
-68 40 0
-68 -25 0
-40 25 68 0
-69 67 0
-69 68 0
-67 -68 69 0
-66 -69 -70 0
66 69 -70 0
-66 69 70 0
66 -69 70 0
71 -62 0
71 -70 0
62 70 -71 0
-72 21 0
-72 -11 0
-21 11 72 0
-26 -47 -73 0
26 47 -73 0
-26 47 73 0
26 -47 73 0
74 -39 0
74 -12 0
39 12 -74 0
-75 74 0
-75 16 0
-74 -16 75 0
-76 -75 0
-76 -20 0
75 20 76 0
-77 6 0
-77 76 0
-6 -76 77 0
78 73 0
78 -77 0
-73 77 -78 0
-79 72 0
-79 -78 0
-72 78 79 0
71 79 -80 0
-71 -79 -80 0
71 -79 80 0
-71 79 80 0
-81 -33 0
-81 80 0
33 -80 81 0
82 24 0
82 81 0
-24 -81 -82 0
-4 51 -83 0
4 -51 -83 0
-4 -51 83 0
4 51 83 0
-84 16 0
-84 12 0
-16 -12 84 0
-84 9 -85 0
84 -9 -85 0
-84 -9 85 0
84 9 85 0
-86 83 0
-86 -85 0
-83 85 86 0
87 -6 0
87 -10 0
6 10 -87 0
-88 -38 0
-88 1 0
38 -1 88 0
-89 87 0
-89 88 0
-87 -88 89 0
-51 -16 -90 0
51 16 -90 0
-51 16 90 0
51 -16 90 0
-91 -13 0
-91 -90 0
13 90 91 0
92 -89 0
92 -91 0
89 91 -92 0
86 92 -93 0
-86 -92 -93 0
86 -92 93 0
-86 92 93 0
48 -85 -94 0
-48 85 -94 0
48 85 94 0
-48 -85 94 0
-95 -94 0
-95 6 0
94 -6 95 0
4 -35 -96 0
-4 35 -96 0
4 35 96 0
-4 -35 96 0
96 -12 -97 0
-96 12 -97 0
96 12 97 0
-96 -12 97 0
-98 97 0
-98 -74 0
-97 74 98 0
-95 -98 -99 0
95 98 -99 0
-95 98 99 0
95 -98 99 0
-100 -10 0
-100 -4 0
10 4 100 0
-100 6 -101 0
100 -6 -101 0
-100 -6 101 0
100 6 101 0
102 -99 0
102 101 0
99 -101 -102 0
-12 103 -104 0
12 -103 -104 0
-12 -103 104 0
12 103 104 0
-105 39 0
-105 -103 0
-39 103 105 0
-104 105 -106 0
104 -105 -106 0
-104 -105 106 0
104 105 106 0
107 -102 0
107 106 0
102 -106 -107 0
108 93 0
108 -107 0
-93 107 -108 0
-82 -108 -109 0
82 108 -109 0
-82 108 109 0
82 -108 109 0
-46 12 1 0
-7 8 -33 82 39 -26 0
57 -23 108 -59 -26 0
-44 -47 11 -71 73 64 0
103 44 -49 -1 26 0
29 63 -57 -33 0
-13 107 0
70 -19 -3 0
48 -96 0
-17 -15 74 98 -13 0
-64 -20 -83 -32 0
-27 10 16 -86 0
-66 100 0
22 -86 -96 53 0
76 -7 79 -41 96 0
-105 -26 104 -1 0
-23 -58 94 -29 97 0
71 -99 -10 0
28 99 0
85 -102 -99 0
31 -35 106 97 -96 -84 0
35 -85 -34 -72 0
10 56 -108 66 0
-81 67 -24 0
108 -45 71 72 -38 0
-13 -84 0
48 22 8 0
55 -69 42 -108 0
18 -30 60 -89 -40 -25 0
12 108 2 65 -10 60 0
99 65 -59 22 -100 0
63 7 -85 0
87 -66 79 0
104 38 61 59 21 -67 0
-44 -65 -13 55 -93 6 0
-81 75 0
-79 49 -81 66 0
12 -8 49 -106 0
6 102 18 -89 0
-42 -108 57 0
-67 53 -41 70 0
98 9 -27 -64 0
-25 45 -66 0
42 -34 -101 -24 -50 0
-100 57 74 -75 42 0
37 79 27 -7 97 0
-49 -14 0
-30 -12 47 65 -91 8 0
86 81 0
-77 106 79 108 0
32 28 -16 46 90 0
-106 -89 -21 0
-8 -109 -46 -12 0
-40 97 -74 -55 0
-26 -41 -84 0
4 -46 -41 -24 31 -56 0
-90 -93 -47 0
-21 39 51 102 25 0
48 71 0
-98 19 0
-36 -58 -37 -73 31 0
-41 -11 56 105 23 103 0
-107 28 77 -23 0
109 0
